p wcnf 111 131
100000 -1 2 0
100000 -1 3 0
100000 -1 4 0
100000 -1 5 0
100000 -1 6 0
100000 -1 7 0
100000 -1 8 0
100000 -1 9 0
100000 -1 10 0
100000 -1 11 0
5000 12 -2 -2 0
5000 13 -2 -3 0
5000 14 -2 -4 0
5000 15 -2 -5 0
5000 16 -2 -6 0
5000 17 -2 -7 0
5000 18 -2 -8 0
5000 19 -2 -9 0
5000 20 -2 -10 0
5000 21 -2 -11 0
5000 22 -3 -2 0
5000 23 -3 -3 0
5000 24 -3 -4 0
5000 25 -3 -5 0
5000 26 -3 -6 0
5000 27 -3 -7 0
5000 28 -3 -8 0
5000 29 -3 -9 0
5000 30 -3 -10 0
5000 31 -3 -11 0
5000 32 -4 -2 0
5000 33 -4 -3 0
5000 34 -4 -4 0
5000 35 -4 -5 0
5000 36 -4 -6 0
5000 37 -4 -7 0
5000 38 -4 -8 0
5000 39 -4 -9 0
5000 40 -4 -10 0
5000 41 -4 -11 0
5000 42 -5 -2 0
5000 43 -5 -3 0
5000 44 -5 -4 0
5000 45 -5 -5 0
5000 46 -5 -6 0
5000 47 -5 -7 0
5000 48 -5 -8 0
5000 49 -5 -9 0
5000 50 -5 -10 0
5000 51 -5 -11 0
5000 52 -6 -2 0
5000 53 -6 -3 0
5000 54 -6 -4 0
5000 55 -6 -5 0
5000 56 -6 -6 0
5000 57 -6 -7 0
5000 58 -6 -8 0
5000 59 -6 -9 0
5000 60 -6 -10 0
5000 61 -6 -11 0
5000 62 -7 -2 0
5000 63 -7 -3 0
5000 64 -7 -4 0
5000 65 -7 -5 0
5000 66 -7 -6 0
5000 67 -7 -7 0
5000 68 -7 -8 0
5000 69 -7 -9 0
5000 70 -7 -10 0
5000 71 -7 -11 0
5000 72 -8 -2 0
5000 73 -8 -3 0
5000 74 -8 -4 0
5000 75 -8 -5 0
5000 76 -8 -6 0
5000 77 -8 -7 0
5000 78 -8 -8 0
5000 79 -8 -9 0
5000 80 -8 -10 0
5000 81 -8 -11 0
5000 82 -9 -2 0
5000 83 -9 -3 0
5000 84 -9 -4 0
5000 85 -9 -5 0
5000 86 -9 -6 0
5000 87 -9 -7 0
5000 88 -9 -8 0
5000 89 -9 -9 0
5000 90 -9 -10 0
5000 91 -9 -11 0
5000 92 -10 -2 0
5000 93 -10 -3 0
5000 94 -10 -4 0
5000 95 -10 -5 0
5000 96 -10 -6 0
5000 97 -10 -7 0
5000 98 -10 -8 0
5000 99 -10 -9 0
5000 100 -10 -10 0
5000 101 -10 -11 0
5000 102 -11 -2 0
5000 103 -11 -3 0
5000 104 -11 -4 0
5000 105 -11 -5 0
5000 106 -11 -6 0
5000 107 -11 -7 0
5000 108 -11 -8 0
5000 109 -11 -9 0
5000 110 -11 -10 0
5000 111 -11 -11 0
500000 1 0
4000 -2 0
4000 -3 0
4000 -4 0
4000 -5 0
4000 -6 0
4000 -7 0
4000 -8 0
4000 -9 0
4000 -10 0
4000 -11 0
1 -12 0
1 -23 0
1 -34 0
1 -45 0
1 -56 0
1 -67 0
1 -78 0
1 -89 0
1 -100 0
1 -111 0
